3141
1228
1196
5124
3822
2269
4171
9569
6601
8215
1992
6903
7452
2180
5323
7274
4844
5036
8539
2241
4753
5506
3357
588
3724
5790
6966
2070
4195
5359
3689
6662
8471
1972
8366
3282
3297
8239
9461
1111
5157
2647
1534
9662
8562
1078
6188
2330
2527
1418
9513
